words_hard_train/7674.qaiger
aag 153 24 0 1 129
2
4
8
12
16
20
28
30
34
36
48
50
62
64
76
96
108
116
212
228
242
266
268
290
306
6 2 4
10 6 8
14 10 12
18 14 16
22 19 21
24 18 20
26 23 25
32 28 30
38 35 37
40 34 36
42 39 41
44 32 42
46 45 41
52 49 51
54 48 50
56 53 55
58 47 56
60 59 55
66 63 64
68 62 65
70 67 69
72 61 70
74 73 69
78 65 77
80 51 77
82 31 37
84 80 82
86 79 85
88 64 76
90 86 89
92 84 64
94 91 93
98 95 97
100 94 96
102 99 101
104 75 102
106 105 101
110 78 109
112 79 108
114 111 113
118 115 117
120 114 116
122 119 121
124 106 123
126 107 122
128 125 127
130 26 128
132 60 71
134 133 73
136 11 13
138 137 15
140 134 138
142 45 7
144 7 9
146 145 11
148 46 57
150 149 59
152 147 151
154 142 153
156 3 4
158 33 42
160 157 159
162 29 31
164 161 163
166 3 5
168 33 43
170 167 169
172 165 171
174 154 173
176 141 175
178 146 150
180 176 179
182 135 139
184 181 183
186 74 103
188 187 105
190 15 17
192 191 19
194 188 192
196 185 195
198 189 193
200 197 199
202 27 129
204 200 203
206 131 205
208 127 121
210 112 85
214 211 213
216 210 212
218 215 217
220 92 108
222 218 221
224 219 220
226 223 225
230 227 229
232 226 228
234 231 233
236 208 235
238 209 234
240 237 239
244 25 243
246 24 242
248 245 247
250 241 249
252 207 251
254 240 248
256 253 255
258 256 247
260 215 221
262 217 220
264 261 263
270 266 268
272 267 269
274 271 273
276 265 274
278 264 275
280 277 279
282 239 233
284 280 282
286 281 283
288 285 287
292 289 291
294 258 293
296 257 246
298 292 296
300 295 299
302 288 290
304 302 297
306 300 305
i0 2 y2[0]
i1 2 y2[1]
i2 2 y2[2]
i3 2 y2[3]
i4 2 y2[4]
i5 2 y2[5]
i6 1 x2[0]
i7 1 x1[0]
i8 1 x2[1]
i9 1 x1[1]
i10 1 x2[2]
i11 1 x1[2]
i12 1 x2[3]
i13 1 x1[3]
i14 1 x1[4]
i15 1 x2[4]
i16 1 x1[5]
i17 1 x2[5]
i18 1 x1[6]
i19 1 x2[6]
i20 2 y2[6]
i21 1 x2[7]
i22 1 x1[7]
i23 2 y2[7]
o0 bv[0]
c
simplified
  <=
    invert
      2 y2
    subtract
      1 x2
      subtract
        -216
        1 x1
