words_hard_train/7674.qaiger.qdimacs
p cnf 153 388
a 32 133 38 134 106 14 15 48 17 18 114 54 24 25 58 31 0
e 1 2 3 4 5 6 7 8 9 10 11 12 13 16 19 20 21 22 23 26 27 28 29 30 33 34 35 36 37 39 40 41 42 43 44 45 46 47 49 50 51 52 53 55 56 57 59 60 61 62 63 64 65 66 67 68 69 70 71 72 73 74 75 76 77 78 79 80 81 82 83 84 85 86 87 88 89 90 91 92 93 94 95 96 97 98 99 100 101 102 103 104 105 107 108 109 110 111 112 113 115 116 117 118 119 120 121 122 123 124 125 126 127 128 129 130 131 132 135 136 137 138 139 140 141 142 143 144 145 146 147 148 149 150 151 152 153 0
-1 -2 3 0
1 -3 0
2 -3 0
-3 -4 5 0
3 -5 0
4 -5 0
-5 -6 7 0
5 -7 0
6 -7 0
-7 -8 9 0
7 -9 0
8 -9 0
9 10 11 0
-9 -11 0
-10 -11 0
-9 -10 12 0
9 -12 0
10 -12 0
11 12 13 0
-11 -13 0
-12 -13 0
-14 -15 16 0
14 -16 0
15 -16 0
17 18 19 0
-17 -19 0
-18 -19 0
-17 -18 20 0
17 -20 0
18 -20 0
19 20 21 0
-19 -21 0
-20 -21 0
-16 -21 22 0
16 -22 0
21 -22 0
22 20 23 0
-22 -23 0
-20 -23 0
24 25 26 0
-24 -26 0
-25 -26 0
-24 -25 27 0
24 -27 0
25 -27 0
26 27 28 0
-26 -28 0
-27 -28 0
23 -28 29 0
-23 -29 0
28 -29 0
29 27 30 0
-29 -30 0
-27 -30 0
31 -32 33 0
-31 -33 0
32 -33 0
-31 32 34 0
31 -34 0
-32 -34 0
33 34 35 0
-33 -35 0
-34 -35 0
30 -35 36 0
-30 -36 0
35 -36 0
36 34 37 0
-36 -37 0
-34 -37 0
32 38 39 0
-32 -39 0
-38 -39 0
25 38 40 0
-25 -40 0
-38 -40 0
15 18 41 0
-15 -41 0
-18 -41 0
-40 -41 42 0
40 -42 0
41 -42 0
39 42 43 0
-39 -43 0
-42 -43 0
-32 -38 44 0
32 -44 0
38 -44 0
-43 44 45 0
43 -45 0
-44 -45 0
-42 -32 46 0
42 -46 0
32 -46 0
45 46 47 0
-45 -47 0
-46 -47 0
47 48 49 0
-47 -49 0
-48 -49 0
-47 -48 50 0
47 -50 0
48 -50 0
49 50 51 0
-49 -51 0
-50 -51 0
37 -51 52 0
-37 -52 0
51 -52 0
52 50 53 0
-52 -53 0
-50 -53 0
-39 54 55 0
39 -55 0
-54 -55 0
39 -54 56 0
-39 -56 0
54 -56 0
55 56 57 0
-55 -57 0
-56 -57 0
57 58 59 0
-57 -59 0
-58 -59 0
-57 -58 60 0
57 -60 0
58 -60 0
59 60 61 0
-59 -61 0
-60 -61 0
-53 61 62 0
53 -62 0
-61 -62 0
53 -61 63 0
-53 -63 0
61 -63 0
62 63 64 0
-62 -64 0
-63 -64 0
-13 -64 65 0
13 -65 0
64 -65 0
-30 35 66 0
30 -66 0
-35 -66 0
66 36 67 0
-66 -67 0
-36 -67 0
5 6 68 0
-5 -68 0
-6 -68 0
68 7 69 0
-68 -69 0
-7 -69 0
-67 -69 70 0
67 -70 0
69 -70 0
22 3 71 0
-22 -71 0
-3 -71 0
3 4 72 0
-3 -72 0
-4 -72 0
72 5 73 0
-72 -73 0
-5 -73 0
-23 28 74 0
23 -74 0
-28 -74 0
74 29 75 0
-74 -75 0
-29 -75 0
73 75 76 0
-73 -76 0
-75 -76 0
-71 76 77 0
71 -77 0
-76 -77 0
1 -2 78 0
-1 -78 0
2 -78 0
16 -21 79 0
-16 -79 0
21 -79 0
78 79 80 0
-78 -80 0
-79 -80 0
14 15 81 0
-14 -81 0
-15 -81 0
80 81 82 0
-80 -82 0
-81 -82 0
1 2 83 0
-1 -83 0
-2 -83 0
16 21 84 0
-16 -84 0
-21 -84 0
83 84 85 0
-83 -85 0
-84 -85 0
82 85 86 0
-82 -86 0
-85 -86 0
-77 86 87 0
77 -87 0
-86 -87 0
70 87 88 0
-70 -88 0
-87 -88 0
-73 -75 89 0
73 -89 0
75 -89 0
-88 89 90 0
88 -90 0
-89 -90 0
67 69 91 0
-67 -91 0
-69 -91 0
90 91 92 0
-90 -92 0
-91 -92 0
-37 51 93 0
37 -93 0
-51 -93 0
93 52 94 0
-93 -94 0
-52 -94 0
7 8 95 0
-7 -95 0
-8 -95 0
95 9 96 0
-95 -96 0
-9 -96 0
-94 -96 97 0
94 -97 0
96 -97 0
92 97 98 0
-92 -98 0
-97 -98 0
94 96 99 0
-94 -99 0
-96 -99 0
98 99 100 0
-98 -100 0
-99 -100 0
13 64 101 0
-13 -101 0
-64 -101 0
-100 101 102 0
100 -102 0
-101 -102 0
65 102 103 0
-65 -103 0
-102 -103 0
63 60 104 0
-63 -104 0
-60 -104 0
-56 42 105 0
56 -105 0
-42 -105 0
105 106 107 0
-105 -107 0
-106 -107 0
-105 -106 108 0
105 -108 0
106 -108 0
107 108 109 0
-107 -109 0
-108 -109 0
-46 -54 110 0
46 -110 0
54 -110 0
-109 110 111 0
109 -111 0
-110 -111 0
109 -110 112 0
-109 -112 0
110 -112 0
111 112 113 0
-111 -113 0
-112 -113 0
113 114 115 0
-113 -115 0
-114 -115 0
-113 -114 116 0
113 -116 0
114 -116 0
115 116 117 0
-115 -117 0
-116 -117 0
-104 117 118 0
104 -118 0
-117 -118 0
104 -117 119 0
-104 -119 0
117 -119 0
118 119 120 0
-118 -120 0
-119 -120 0
12 121 122 0
-12 -122 0
-121 -122 0
-12 -121 123 0
12 -123 0
121 -123 0
122 123 124 0
-122 -124 0
-123 -124 0
120 124 125 0
-120 -125 0
-124 -125 0
103 125 126 0
-103 -126 0
-125 -126 0
-120 -124 127 0
120 -127 0
124 -127 0
126 127 128 0
-126 -128 0
-127 -128 0
-128 123 129 0
128 -129 0
-123 -129 0
107 110 130 0
-107 -130 0
-110 -130 0
108 -110 131 0
-108 -131 0
110 -131 0
130 131 132 0
-130 -132 0
-131 -132 0
-133 -134 135 0
133 -135 0
134 -135 0
133 134 136 0
-133 -136 0
-134 -136 0
135 136 137 0
-135 -137 0
-136 -137 0
132 -137 138 0
-132 -138 0
137 -138 0
-132 137 139 0
132 -139 0
-137 -139 0
138 139 140 0
-138 -140 0
-139 -140 0
119 116 141 0
-119 -141 0
-116 -141 0
-140 -141 142 0
140 -142 0
141 -142 0
140 141 143 0
-140 -143 0
-141 -143 0
142 143 144 0
-142 -144 0
-143 -144 0
144 145 146 0
-144 -146 0
-145 -146 0
-129 146 147 0
129 -147 0
-146 -147 0
128 -123 148 0
-128 -148 0
123 -148 0
-146 -148 149 0
146 -149 0
148 -149 0
147 149 150 0
-147 -150 0
-149 -150 0
-144 -145 151 0
144 -151 0
145 -151 0
-151 148 152 0
151 -152 0
-148 -152 0
-150 152 153 0
150 -153 0
-152 -153 0
153 0
